(declare-fun bvlambda_13_ () (_ BitVec 11))
(declare-fun a102 () (Array (_ BitVec 1) (_ BitVec 6)))
(assert
(let (($e1 false    ))
(let (($e11 (_ bv0 5)))
(let (($e12 (_ bv500 10)))
(let (($e13 (_ bv0 6)))
(let (($e30 (_ bv46 6)))
(let (($e107               $e12        ))
(let (($e108 ((_ extract 7 2) $e107)))
(let (($e120               bvlambda_13_ ))
(let (($e121        $e120                             ))
(let (($e122 ((_ extract 7 2) $e121)))
(let (($e125                    $e122      ))
(let (($e129               $e125 ))
(let (($e130 (   extract        $e129)))
(let (($e131 (store a102 $e130 $e30)))
(let (($e134 (   extract      $e121)))
(let (($e135              $e134 ))
(let (($e138        a102                    ))
(let (($e139 (store $e138 $e1 $e108)))
(let (($e140 (select $e139 $e135)))
(let (($e376 (select $e138 $e1)))
(let (($e566      (=        $e13  $e140)         ))
(let (($e567 (concat $e11        $e566 )))
(let (($e568 (bvand        $e376         $e567 )))
(let (($e844 (select $e131 true       )))
(let (($e845 (   extract      $e844)))
(let (($e852                           $e845  ))
(let (($e853               $e852                ))
(let (($e857 (   extract      $e568)))
(let (($e858        $e857               ))
                  (= $e858 $e853)
                                                                                                                                                                                                                                                                                                                                                                                                                                                                                                                                                                                                   ))   ))      ))                                                                                                                                                                                                                                                                                   )))                                                                                                                                                                                             )                                                                                                                                                                                                                                           )))  ))  )))   )  )))           ))                                                   )                )))         ))
